NAME : problems/30-tsp/instance-1.tsp
COMMENT : No Comment
TYPE : TSP
DIMENSION: 30
EDGE_WEIGHT_TYPE : EUC_2D
NODE_COORD_SECTION
1 4106 4645 
2 863 8905 
3 5799 822 
4 5096 6543 
5 4454 9715 
6 3054 9500 
7 7580 5150 
8 5698 8469 
9 7849 2807 
10 180 6941 
11 2631 3530 
12 4112 7662 
13 8696 5952 
14 8891 342 
15 4290 8477 
16 662 7798 
17 3162 2368 
18 2472 7477 
19 1270 336 
20 5727 7066 
21 6553 4730 
22 1569 2053 
23 6756 6508 
24 8022 1127 
25 9285 3133 
26 6441 761 
27 464 164 
28 1969 1662 
29 6990 3995 
30 3498 7253 
EOF
